benchmarks/crosswords/mzn/crossword3_14.ozn
output ([(((("\n"++problem_name)++"\n")++"L:")++show(L))++"\n"]++[if problem[i,j]==0 then "*" else show(letters[fix(L[problem[i,j]])]) endif++if j==cols then "\n" else "" endif | i in 1..rows, j in 1..cols, ])++["\n"];
int: rows = 15;
int: cols = 15;
array [1..rows,1..cols] of int: problem = [|1,2,3,4,5,0,6,7,8,9,0,10,11,12,13|14,15,16,17,18,0,19,20,21,22,0,23,24,25,26|27,28,29,30,31,32,33,34,35,36,0,37,38,39,40|41,42,43,44,0,45,46,47,48,49,0,50,51,52,53|0,0,0,0,54,55,56,0,0,0,57,58,59,60,61|62,63,64,65,66,67,0,68,69,70,71,0,0,0,0|72,73,74,75,76,0,0,77,78,79,80,81,82,83,0|84,85,86,87,88,89,90,91,92,93,94,95,96,97,98|0,99,100,101,102,103,104,105,0,0,106,107,108,109,110|0,0,0,0,111,112,113,114,0,115,116,117,118,119,120|121,122,123,124,125,0,0,0,126,127,128,0,0,0,0|129,130,131,132,0,133,134,135,136,137,0,138,139,140,141|142,143,144,145,0,146,147,148,149,150,151,152,153,154,155|156,157,158,159,0,160,161,162,163,0,164,165,166,167,168|169,170,171,172,0,173,174,175,176,0,177,178,179,180,181|];
int: num_letters = 26;
array [1..num_letters] of string: letters = ["a","b","c","d","e","f","g","h","i","j","k","l","m","n","o","p","q","r","s","t","u","v","w","x","y","z"];
int: N = 181;
array [0..N] of int: L;
string: problem_name = "15.05, 15 x 15";
