benchmarks/crosswords/mzn/crossword3_14.res
REGULAR
REGULAR
REGULAR
REGULAR
REGULAR
REGULAR
REGULAR
REGULAR
REGULAR
REGULAR
REGULAR
REGULAR
REGULAR
REGULAR
REGULAR
REGULAR
REGULAR
REGULAR
REGULAR
REGULAR
REGULAR
REGULAR
REGULAR
REGULAR
REGULAR
REGULAR
REGULAR
REGULAR
REGULAR
REGULAR
REGULAR
REGULAR
REGULAR
REGULAR
REGULAR
REGULAR
REGULAR
REGULAR
REGULAR
REGULAR
REGULAR
REGULAR
REGULAR
REGULAR
REGULAR
REGULAR
REGULAR
REGULAR
REGULAR
REGULAR
REGULAR
REGULAR
REGULAR
REGULAR
REGULAR
REGULAR
REGULAR
REGULAR
REGULAR
REGULAR
REGULAR
REGULAR
REGULAR
REGULAR
REGULAR
REGULAR
REGULAR
REGULAR
REGULAR
REGULAR
REGULAR
REGULAR
REGULAR
REGULAR
REGULAR
REGULAR
REGULAR
REGULAR
L = array1d(0..181, [1, 1, 20, 19, 1, 16, 1, 14, 1, 19, 1, 19, 12, 5, 9, 1, 20, 12, 1, 13, 1, 18, 4, 2, 21, 12, 3, 19, 14, 1, 9, 20, 1, 13, 12, 1, 4, 5, 13, 1, 14, 1, 7, 5, 22, 13, 1, 3, 3, 15, 13, 1, 4, 1, 19, 1, 7, 20, 1, 3, 21, 4, 12, 1, 9, 4, 5, 13, 5, 7, 4, 5, 1, 14, 1, 5, 4, 18, 5, 4, 14, 21, 15, 19, 3, 9, 8, 16, 18, 15, 13, 15, 16, 15, 18, 8, 20, 14, 1, 12, 20, 1, 21, 8, 1, 14, 9, 1, 14, 1, 12, 15, 15, 8, 19, 14, 1, 15, 9, 8, 15, 1, 9, 2, 1, 12, 4, 1, 8, 8, 3, 1, 13, 20, 1, 2, 1, 18, 4, 5, 15, 20, 19, 1, 8, 1, 19, 14, 1, 9, 2, 9, 8, 16, 13, 1, 1, 18, 5, 19, 1, 5, 18, 1, 11, 1, 15, 12, 3, 19, 20, 18, 1, 3, 18, 1, 14, 19, 6, 18, 5, 19]);
----------

%%  runtime:       6.251 (6251.932 ms)
%%  solvetime:     0.072 (72.677 ms)
%%  solutions:     1
%%  variables:     10596
%%  propagators:   13495
%%  propagations:  151986
%%  nodes:         87
%%  failures:      13
%%  restarts:      0
%%  peak depth:    71

GECODE_TUPLESET_MEM
GECODE_TUPLESET_MEM
GECODE_TUPLESET_MEM
GECODE_TUPLESET_MEM
GECODE_TUPLESET_MEM
GECODE_TUPLESET_MEM
GECODE_TUPLESET_MEM
GECODE_TUPLESET_MEM
GECODE_TUPLESET_MEM
GECODE_TUPLESET_MEM
GECODE_TUPLESET_MEM
GECODE_TUPLESET_MEM
GECODE_TUPLESET_MEM
GECODE_TUPLESET_MEM
GECODE_TUPLESET_MEM
GECODE_TUPLESET_MEM
GECODE_TUPLESET_MEM
GECODE_TUPLESET_MEM
GECODE_TUPLESET_MEM
GECODE_TUPLESET_MEM
GECODE_TUPLESET_MEM
GECODE_TUPLESET_MEM
GECODE_TUPLESET_MEM
GECODE_TUPLESET_MEM
GECODE_TUPLESET_MEM
GECODE_TUPLESET_MEM
GECODE_TUPLESET_MEM
GECODE_TUPLESET_MEM
GECODE_TUPLESET_MEM
GECODE_TUPLESET_MEM
GECODE_TUPLESET_MEM
GECODE_TUPLESET_MEM
GECODE_TUPLESET_MEM
GECODE_TUPLESET_MEM
GECODE_TUPLESET_MEM
GECODE_TUPLESET_MEM
GECODE_TUPLESET_MEM
GECODE_TUPLESET_MEM
GECODE_TUPLESET_MEM
GECODE_TUPLESET_MEM
GECODE_TUPLESET_MEM
GECODE_TUPLESET_MEM
GECODE_TUPLESET_MEM
GECODE_TUPLESET_MEM
GECODE_TUPLESET_MEM
GECODE_TUPLESET_MEM
GECODE_TUPLESET_MEM
GECODE_TUPLESET_MEM
GECODE_TUPLESET_MEM
GECODE_TUPLESET_MEM
GECODE_TUPLESET_MEM
GECODE_TUPLESET_MEM
GECODE_TUPLESET_MEM
GECODE_TUPLESET_MEM
GECODE_TUPLESET_MEM
GECODE_TUPLESET_MEM
GECODE_TUPLESET_MEM
GECODE_TUPLESET_MEM
GECODE_TUPLESET_MEM
GECODE_TUPLESET_MEM
GECODE_TUPLESET_MEM
GECODE_TUPLESET_MEM
GECODE_TUPLESET_MEM
GECODE_TUPLESET_MEM
GECODE_TUPLESET_MEM
GECODE_TUPLESET_MEM
GECODE_TUPLESET_MEM
GECODE_TUPLESET_MEM
GECODE_TUPLESET_MEM
GECODE_TUPLESET_MEM
GECODE_TUPLESET_MEM
GECODE_TUPLESET_MEM
GECODE_TUPLESET_MEM
GECODE_TUPLESET_MEM
GECODE_TUPLESET_MEM
GECODE_TUPLESET_MEM
GECODE_TUPLESET_MEM
GECODE_TUPLESET_MEM
L = array1d(0..181, [1, 6, 12, 21, 14, 7, 13, 1, 19, 19, 20, 23, 15, 19, 12, 5, 18, 15, 25, 15, 12, 1, 22, 5, 1, 3, 8, 1, 19, 19, 5, 13, 2, 12, 1, 7, 5, 16, 9, 3, 1, 2, 1, 1, 12, 1, 1, 18, 15, 14, 9, 22, 1, 14, 6, 4, 18, 5, 4, 5, 13, 1, 1, 18, 1, 2, 12, 5, 1, 13, 5, 14, 12, 1, 14, 1, 9, 8, 1, 25, 19, 5, 5, 4, 1, 14, 20, 8, 18, 15, 16, 15, 3, 5, 14, 20, 18, 9, 3, 4, 5, 19, 20, 18, 15, 25, 1, 14, 7, 5, 18, 5, 1, 20, 19, 2, 18, 1, 19, 19, 25, 1, 8, 5, 1, 4, 13, 1, 5, 2, 1, 23, 12, 11, 5, 2, 1, 2, 18, 1, 7, 1, 18, 9, 5, 12, 1, 3, 1, 4, 5, 13, 9, 3, 1, 12, 1, 6, 18, 15, 20, 18, 9, 7, 1, 4, 5, 12, 1, 13, 1, 19, 20, 25, 21, 12, 5, 19, 5, 4, 1, 14]);
----------

%%  runtime:       0.617 (617.873 ms)
%%  solvetime:     0.049 (49.042 ms)
%%  solutions:     1
%%  variables:     10596
%%  propagators:   13477
%%  propagations:  125273
%%  nodes:         83
%%  failures:      10
%%  restarts:      0
%%  peak depth:    70

GECODE_TUPLESET_SPEED
GECODE_TUPLESET_SPEED
GECODE_TUPLESET_SPEED
GECODE_TUPLESET_SPEED
GECODE_TUPLESET_SPEED
GECODE_TUPLESET_SPEED
GECODE_TUPLESET_SPEED
GECODE_TUPLESET_SPEED
GECODE_TUPLESET_SPEED
GECODE_TUPLESET_SPEED
GECODE_TUPLESET_SPEED
GECODE_TUPLESET_SPEED
GECODE_TUPLESET_SPEED
GECODE_TUPLESET_SPEED
GECODE_TUPLESET_SPEED
GECODE_TUPLESET_SPEED
GECODE_TUPLESET_SPEED
GECODE_TUPLESET_SPEED
GECODE_TUPLESET_SPEED
GECODE_TUPLESET_SPEED
GECODE_TUPLESET_SPEED
GECODE_TUPLESET_SPEED
GECODE_TUPLESET_SPEED
GECODE_TUPLESET_SPEED
GECODE_TUPLESET_SPEED
GECODE_TUPLESET_SPEED
GECODE_TUPLESET_SPEED
GECODE_TUPLESET_SPEED
GECODE_TUPLESET_SPEED
GECODE_TUPLESET_SPEED
GECODE_TUPLESET_SPEED
GECODE_TUPLESET_SPEED
GECODE_TUPLESET_SPEED
GECODE_TUPLESET_SPEED
GECODE_TUPLESET_SPEED
GECODE_TUPLESET_SPEED
GECODE_TUPLESET_SPEED
GECODE_TUPLESET_SPEED
GECODE_TUPLESET_SPEED
GECODE_TUPLESET_SPEED
GECODE_TUPLESET_SPEED
GECODE_TUPLESET_SPEED
GECODE_TUPLESET_SPEED
GECODE_TUPLESET_SPEED
GECODE_TUPLESET_SPEED
GECODE_TUPLESET_SPEED
GECODE_TUPLESET_SPEED
GECODE_TUPLESET_SPEED
GECODE_TUPLESET_SPEED
GECODE_TUPLESET_SPEED
GECODE_TUPLESET_SPEED
GECODE_TUPLESET_SPEED
GECODE_TUPLESET_SPEED
GECODE_TUPLESET_SPEED
GECODE_TUPLESET_SPEED
GECODE_TUPLESET_SPEED
GECODE_TUPLESET_SPEED
GECODE_TUPLESET_SPEED
GECODE_TUPLESET_SPEED
GECODE_TUPLESET_SPEED
GECODE_TUPLESET_SPEED
GECODE_TUPLESET_SPEED
GECODE_TUPLESET_SPEED
GECODE_TUPLESET_SPEED
GECODE_TUPLESET_SPEED
GECODE_TUPLESET_SPEED
GECODE_TUPLESET_SPEED
GECODE_TUPLESET_SPEED
GECODE_TUPLESET_SPEED
GECODE_TUPLESET_SPEED
GECODE_TUPLESET_SPEED
GECODE_TUPLESET_SPEED
GECODE_TUPLESET_SPEED
GECODE_TUPLESET_SPEED
GECODE_TUPLESET_SPEED
GECODE_TUPLESET_SPEED
GECODE_TUPLESET_SPEED
GECODE_TUPLESET_SPEED
L = array1d(0..181, [1, 6, 12, 21, 14, 7, 13, 1, 19, 19, 20, 23, 15, 19, 12, 5, 18, 15, 25, 15, 12, 1, 22, 5, 1, 3, 8, 1, 19, 19, 5, 13, 2, 12, 1, 7, 5, 16, 9, 3, 1, 2, 1, 1, 12, 1, 1, 18, 15, 14, 9, 22, 1, 14, 6, 4, 18, 5, 4, 5, 13, 1, 1, 18, 1, 2, 12, 5, 1, 13, 5, 14, 12, 1, 14, 1, 9, 8, 1, 25, 19, 5, 5, 4, 1, 14, 20, 8, 18, 15, 16, 15, 3, 5, 14, 20, 18, 9, 3, 4, 5, 19, 20, 18, 15, 25, 1, 14, 7, 5, 18, 5, 1, 20, 19, 2, 18, 1, 19, 19, 25, 1, 8, 5, 1, 4, 13, 1, 5, 2, 1, 23, 12, 11, 5, 2, 1, 2, 18, 1, 7, 1, 18, 9, 5, 12, 1, 3, 1, 4, 5, 13, 9, 3, 1, 12, 1, 6, 18, 15, 20, 18, 9, 7, 1, 4, 5, 12, 1, 13, 1, 19, 20, 25, 21, 12, 5, 19, 5, 4, 1, 14]);
----------

%%  runtime:       0.645 (645.279 ms)
%%  solvetime:     0.058 (58.458 ms)
%%  solutions:     1
%%  variables:     10596
%%  propagators:   13477
%%  propagations:  124702
%%  nodes:         83
%%  failures:      10
%%  restarts:      0
%%  peak depth:    70

COMPACT_TABLE
COMPACT_TABLE
COMPACT_TABLE
COMPACT_TABLE
COMPACT_TABLE
COMPACT_TABLE
COMPACT_TABLE
COMPACT_TABLE
COMPACT_TABLE
COMPACT_TABLE
COMPACT_TABLE
COMPACT_TABLE
COMPACT_TABLE
COMPACT_TABLE
COMPACT_TABLE
COMPACT_TABLE
COMPACT_TABLE
COMPACT_TABLE
COMPACT_TABLE
COMPACT_TABLE
COMPACT_TABLE
COMPACT_TABLE
COMPACT_TABLE
COMPACT_TABLE
COMPACT_TABLE
COMPACT_TABLE
COMPACT_TABLE
COMPACT_TABLE
COMPACT_TABLE
COMPACT_TABLE
COMPACT_TABLE
COMPACT_TABLE
COMPACT_TABLE
COMPACT_TABLE
COMPACT_TABLE
COMPACT_TABLE
COMPACT_TABLE
COMPACT_TABLE
COMPACT_TABLE
COMPACT_TABLE
COMPACT_TABLE
COMPACT_TABLE
COMPACT_TABLE
COMPACT_TABLE
COMPACT_TABLE
COMPACT_TABLE
COMPACT_TABLE
COMPACT_TABLE
COMPACT_TABLE
COMPACT_TABLE
COMPACT_TABLE
COMPACT_TABLE
COMPACT_TABLE
COMPACT_TABLE
COMPACT_TABLE
COMPACT_TABLE
COMPACT_TABLE
COMPACT_TABLE
COMPACT_TABLE
COMPACT_TABLE
COMPACT_TABLE
COMPACT_TABLE
COMPACT_TABLE
COMPACT_TABLE
COMPACT_TABLE
COMPACT_TABLE
COMPACT_TABLE
COMPACT_TABLE
COMPACT_TABLE
COMPACT_TABLE
COMPACT_TABLE
COMPACT_TABLE
COMPACT_TABLE
COMPACT_TABLE
COMPACT_TABLE
COMPACT_TABLE
COMPACT_TABLE
COMPACT_TABLE
L = array1d(0..181, [1, 6, 12, 21, 14, 7, 13, 1, 19, 19, 20, 23, 15, 19, 12, 5, 18, 15, 25, 15, 12, 1, 22, 5, 1, 3, 8, 1, 19, 19, 5, 13, 2, 12, 1, 7, 5, 16, 9, 3, 1, 2, 1, 1, 12, 1, 1, 18, 15, 14, 9, 22, 1, 14, 6, 4, 18, 5, 4, 5, 13, 1, 1, 18, 1, 2, 12, 5, 1, 13, 5, 14, 12, 1, 14, 1, 9, 8, 1, 25, 19, 5, 5, 4, 1, 14, 20, 8, 18, 15, 16, 15, 3, 5, 14, 20, 18, 9, 3, 4, 5, 19, 20, 18, 15, 25, 1, 14, 7, 5, 18, 5, 1, 20, 19, 2, 18, 1, 19, 19, 25, 1, 8, 5, 1, 4, 13, 1, 5, 2, 1, 23, 12, 11, 5, 2, 1, 2, 18, 1, 7, 1, 18, 9, 5, 12, 1, 3, 1, 4, 5, 13, 9, 3, 1, 12, 1, 6, 18, 15, 20, 18, 9, 7, 1, 4, 5, 12, 1, 13, 1, 19, 20, 25, 21, 12, 5, 19, 5, 4, 1, 14]);
----------

%%  runtime:       0.800 (800.899 ms)
%%  solvetime:     0.027 (27.716 ms)
%%  solutions:     1
%%  variables:     10596
%%  propagators:   13477
%%  propagations:  124843
%%  nodes:         83
%%  failures:      10
%%  restarts:      0
%%  peak depth:    70

